NAME 
ROWS
 N  OBJ
 L  R0      
 L  R1      
 E  R2      
 E  R3      
 E  R4      
 E  R5      
 E  R6      
 E  R7      
 E  R8      
 E  R9      
 E  R10     
 E  R11     
 E  R12     
 E  R13     
 E  R14     
 E  R15     
 E  R16     
 E  R17     
 E  R18     
 E  R19     
 E  R20     
 E  R21     
 E  R22     
 E  R23     
 E  R24     
 E  R25     
 E  R26     
COLUMNS
    MARKER    'MARKER'                 'INTORG'
    I0(9)     OBJ       -117
    I0(9)     R0        99
    I0(9)     R1        -67
    I0(9)     R3        8
    I0(9)     R4        13
    I0(9)     R5        9
    I0(9)     R6        6
    I0(9)     R7        2
    I0(9)     R11       9
    I0(9)     R26       1
    I1(10)    OBJ       -15
    I1(10)    R0        125
    I1(10)    R1        -114
    I1(10)    R2        18
    I1(10)    R3        15
    I1(10)    R4        15
    I1(10)    R6        18
    I1(10)    R7        15
    I1(10)    R9        14
    I1(10)    R10       19
    I1(10)    R26       1
    I2(9)     OBJ       31
    I2(9)     R0        -45
    I2(9)     R1        -122
    I2(9)     R2        8
    I2(9)     R4        3
    I2(9)     R6        4
    I2(9)     R8        12
    I2(9)     R10       5
    I2(9)     R11       11
    I2(9)     R26       1
    I3(9)     OBJ       -200
    I3(9)     R0        -191
    I3(9)     R1        -44
    I3(9)     R3        14
    I3(9)     R4        8
    I3(9)     R6        1
    I3(9)     R7        11
    I3(9)     R8        19
    I3(9)     R9        5
    I3(9)     R26       1
    I4(8)     OBJ       -22
    I4(8)     R0        152
    I4(8)     R1        -173
    I4(8)     R2        13
    I4(8)     R3        1
    I4(8)     R5        3
    I4(8)     R8        5
    I4(8)     R10       18
    I4(8)     R26       1
    I5(9)     OBJ       -179
    I5(9)     R0        179
    I5(9)     R1        -109
    I5(9)     R3        12
    I5(9)     R4        -1
    I5(9)     R5        8
    I5(9)     R6        7
    I5(9)     R7        16
    I5(9)     R10       18
    I5(9)     R26       1
    I6(7)     OBJ       133
    I6(7)     R0        77
    I6(7)     R1        6
    I6(7)     R6        12
    I6(7)     R7        8
    I6(7)     R8        12
    I6(7)     R11       1
    I6(7)     R26       1
    I7(7)     OBJ       96
    I7(7)     R0        -110
    I7(7)     R1        -60
    I7(7)     R3        12
    I7(7)     R5        5
    I7(7)     R9        8
    I7(7)     R10       19
    I7(7)     R26       1
    I8(9)     OBJ       18
    I8(9)     R0        18
    I8(9)     R1        112
    I8(9)     R2        -1
    I8(9)     R3        17
    I8(9)     R5        19
    I8(9)     R6        15
    I8(9)     R7        2
    I8(9)     R8        8
    I8(9)     R26       1
    I9(6)     OBJ       -138
    I9(6)     R0        -53
    I9(6)     R1        21
    I9(6)     R3        13
    I9(6)     R5        12
    I9(6)     R10       16
    I9(6)     R26       1
    MARKER    'MARKER'                 'INTEND'
    C10(18)   OBJ       9
    C10(18)   R0        -1
    C10(18)   R1        9
    C10(18)   R2        1
    C10(18)   R3        5
    C10(18)   R6        6
    C10(18)   R7        13
    C10(18)   R9        7
    C10(18)   R10       4
    C10(18)   R11       10
    C10(18)   R12       7
    C10(18)   R13       9
    C10(18)   R14       14
    C10(18)   R15       7
    C10(18)   R17       10
    C10(18)   R20       8
    C10(18)   R21       13
    C10(18)   R22       10
    C10(18)   R25       16
    C11(14)   OBJ       8
    C11(14)   R0        -2
    C11(14)   R1        1
    C11(14)   R5        17
    C11(14)   R8        1
    C11(14)   R9        5
    C11(14)   R10       7
    C11(14)   R11       17
    C11(14)   R14       8
    C11(14)   R19       3
    C11(14)   R21       2
    C11(14)   R22       7
    C11(14)   R23       5
    C11(14)   R24       9
    C11(14)   R25       15
    C12(16)   OBJ       -5
    C12(16)   R0        9
    C12(16)   R1        4
    C12(16)   R2        6
    C12(16)   R3        19
    C12(16)   R4        1
    C12(16)   R6        7
    C12(16)   R9        12
    C12(16)   R11       12
    C12(16)   R12       14
    C12(16)   R13       16
    C12(16)   R15       4
    C12(16)   R16       9
    C12(16)   R19       12
    C12(16)   R21       16
    C12(16)   R22       17
    C12(16)   R25       -1
    C13(12)   OBJ       -3
    C13(12)   R0        -2
    C13(12)   R1        7
    C13(12)   R6        1
    C13(12)   R8        5
    C13(12)   R10       5
    C13(12)   R11       5
    C13(12)   R12       18
    C13(12)   R14       17
    C13(12)   R16       1
    C13(12)   R20       11
    C13(12)   R24       -1
    C13(12)   R25       3
    C14(13)   OBJ       -6
    C14(13)   R0        -5
    C14(13)   R1        9
    C14(13)   R4        6
    C14(13)   R7        6
    C14(13)   R8        19
    C14(13)   R10       7
    C14(13)   R11       13
    C14(13)   R12       9
    C14(13)   R13       13
    C14(13)   R16       4
    C14(13)   R18       2
    C14(13)   R22       7
    C14(13)   R24       12
    C15(14)   OBJ       4
    C15(14)   R0        3
    C15(14)   R1        4
    C15(14)   R3        -1
    C15(14)   R4        13
    C15(14)   R5        10
    C15(14)   R9        17
    C15(14)   R14       9
    C15(14)   R15       5
    C15(14)   R16       3
    C15(14)   R17       7
    C15(14)   R19       2
    C15(14)   R20       7
    C15(14)   R21       11
    C15(14)   R22       6
    C16(18)   OBJ       -6
    C16(18)   R0        -8
    C16(18)   R1        3
    C16(18)   R2        6
    C16(18)   R3        17
    C16(18)   R4        17
    C16(18)   R10       10
    C16(18)   R11       11
    C16(18)   R12       16
    C16(18)   R13       9
    C16(18)   R15       1
    C16(18)   R17       4
    C16(18)   R18       2
    C16(18)   R19       13
    C16(18)   R20       13
    C16(18)   R21       11
    C16(18)   R22       5
    C16(18)   R23       8
    C16(18)   R24       1
    C17(16)   OBJ       -5
    C17(16)   R0        -10
    C17(16)   R1        6
    C17(16)   R4        12
    C17(16)   R5        13
    C17(16)   R9        17
    C17(16)   R11       7
    C17(16)   R12       16
    C17(16)   R14       11
    C17(16)   R15       2
    C17(16)   R17       14
    C17(16)   R18       17
    C17(16)   R19       18
    C17(16)   R20       12
    C17(16)   R22       15
    C17(16)   R23       14
    C17(16)   R24       -1
    C18(17)   OBJ       -3
    C18(17)   R0        4
    C18(17)   R1        8
    C18(17)   R2        11
    C18(17)   R3        18
    C18(17)   R5        5
    C18(17)   R6        11
    C18(17)   R8        8
    C18(17)   R9        12
    C18(17)   R10       7
    C18(17)   R12       1
    C18(17)   R14       15
    C18(17)   R15       4
    C18(17)   R18       10
    C18(17)   R19       16
    C18(17)   R20       6
    C18(17)   R21       10
    C18(17)   R22       12
    C19(10)   OBJ       3
    C19(10)   R0        -5
    C19(10)   R1        4
    C19(10)   R3        10
    C19(10)   R5        1
    C19(10)   R7        7
    C19(10)   R16       -1
    C19(10)   R18       11
    C19(10)   R20       12
    C19(10)   R21       18
    C19(10)   R24       19
    C20(15)   OBJ       7
    C20(15)   R0        -2
    C20(15)   R1        5
    C20(15)   R2        6
    C20(15)   R4        17
    C20(15)   R5        6
    C20(15)   R9        19
    C20(15)   R11       16
    C20(15)   R12       6
    C20(15)   R16       10
    C20(15)   R17       11
    C20(15)   R18       5
    C20(15)   R22       11
    C20(15)   R23       8
    C20(15)   R24       18
    C20(15)   R25       4
    C21(12)   OBJ       3
    C21(12)   R0        -1
    C21(12)   R1        -10
    C21(12)   R2        9
    C21(12)   R4        18
    C21(12)   R9        9
    C21(12)   R12       4
    C21(12)   R15       12
    C21(12)   R17       17
    C21(12)   R18       15
    C21(12)   R19       3
    C21(12)   R22       18
    C21(12)   R25       7
    C22(13)   R0        4
    C22(13)   R1        -5
    C22(13)   R2        12
    C22(13)   R9        9
    C22(13)   R10       9
    C22(13)   R11       6
    C22(13)   R14       8
    C22(13)   R16       3
    C22(13)   R17       6
    C22(13)   R18       1
    C22(13)   R21       9
    C22(13)   R23       16
    C22(13)   R25       14
    C23(15)   OBJ       -6
    C23(15)   R0        -3
    C23(15)   R1        1
    C23(15)   R2        13
    C23(15)   R3        5
    C23(15)   R5        9
    C23(15)   R7        8
    C23(15)   R8        13
    C23(15)   R15       12
    C23(15)   R16       19
    C23(15)   R17       5
    C23(15)   R18       11
    C23(15)   R20       13
    C23(15)   R22       -1
    C23(15)   R24       7
    C23(15)   R25       2
    C24(13)   OBJ       -7
    C24(13)   R1        4
    C24(13)   R2        12
    C24(13)   R4        7
    C24(13)   R7        17
    C24(13)   R8        1
    C24(13)   R13       -1
    C24(13)   R14       15
    C24(13)   R17       3
    C24(13)   R19       -1
    C24(13)   R20       10
    C24(13)   R21       14
    C24(13)   R22       13
    C24(13)   R23       14
    C25(1)    R2        1
    C26(1)    R3        1
    C27(1)    R4        1
    C28(1)    R5        1
    C29(1)    R6        1
    C30(1)    R7        1
    C31(1)    R8        1
    C32(1)    R9        1
    C33(1)    R10       1
    C34(1)    R11       1
    C35(1)    R12       1
    C36(1)    R13       1
    C37(1)    R14       1
    C38(1)    R15       1
    C39(1)    R16       1
    C40(1)    R17       1
    C41(1)    R18       1
    C42(1)    R19       1
    C43(1)    R20       1
    C44(1)    R21       1
    C45(1)    R22       1
    C46(1)    R23       1
    C47(1)    R24       1
    C48(1)    R25       1
    C49(1)    R26       1
RHS
    RHS1      R0        -8.0149744638402552e+01
    RHS1      R1        -99.9422602281573
    RHS1      R2        95
    RHS1      R3        91
    RHS1      R4        77
    RHS1      R5        53
    RHS1      R6        63
    RHS1      R7        81
    RHS1      R8        59
    RHS1      R9        69
    RHS1      R10       90
    RHS1      R11       74
    RHS1      R12       50
    RHS1      R13       65
    RHS1      R14       98
    RHS1      R15       51
    RHS1      R16       95
    RHS1      R17       81
    RHS1      R18       73
    RHS1      R19       63
    RHS1      R20       51
    RHS1      R21       79
    RHS1      R22       62
    RHS1      R23       86
    RHS1      R24       58
    RHS1      R25       81
    RHS1      R26       3
BOUNDS
 UP BND1      I0(9)     1
 UP BND1      I1(10)    1
 UP BND1      I2(9)     1
 UP BND1      I3(9)     1
 UP BND1      I4(8)     1
 UP BND1      I5(9)     1
 UP BND1      I6(7)     1
 UP BND1      I7(7)     1
 UP BND1      I8(9)     1
 UP BND1      I9(6)     1
ENDATA
